c FILE /home/rafael/Documents/HappySet/MIHS/inputs/happygen/output/graph_d_regular_k3_p0.4_v100_20241127_084018.txt
c SOURCE This is a d-regular graph formed for the happy graph colouring problem.
c DESCRIPTION It was generated using the problem generator of Rhyd Lewis
c
c GRAPH STATS
c Seed                             = 436488378
c Number of Nodes                  = 100
c Number of colours k              = 3
c Number of pre-assignments        = 40
c Degree of all vertices           = 6
c Density                          = 0.0606061
c 
c The degrees of nodes 1 to 100, respectively, are as follows 
c [6, 6, 6, 6, 6, 6, 6, 6, 6, 6, 6, 6, 6, 6, 6, 6, 6, 6, 6, 6, 6, 6, 6, 6, 6, 6, 
c  6, 6, 6, 6, 6, 6, 6, 6, 6, 6, 6, 6, 6, 6, 6, 6, 6, 6, 6, 6, 6, 6, 6, 6, 6, 
c  6, 6, 6, 6, 6, 6, 6, 6, 6, 6, 6, 6, 6, 6, 6, 6, 6, 6, 6, 6, 6, 6, 6, 6, 6, 
c  6, 6, 6, 6, 6, 6, 6, 6, 6, 6, 6, 6, 6, 6, 6, 6, 6, 6, 6, 6, 6, 6, 6, 6] 
c  
p edge 100 300 3
e 1 17
e 1 33
e 1 61
e 1 81
e 1 97
e 1 98
e 2 20
e 2 55
e 2 60
e 2 69
e 2 82
e 2 84
e 3 9
e 3 15
e 3 26
e 3 52
e 3 64
e 3 93
e 4 10
e 4 49
e 4 55
e 4 59
e 4 64
e 4 78
e 5 12
e 5 19
e 5 62
e 5 77
e 5 78
e 5 96
e 6 7
e 6 28
e 6 48
e 6 51
e 6 87
e 6 96
e 7 16
e 7 19
e 7 54
e 7 82
e 7 85
e 8 23
e 8 35
e 8 50
e 8 71
e 8 72
e 8 83
e 9 44
e 9 58
e 9 76
e 9 81
e 9 92
e 10 44
e 10 52
e 10 62
e 10 73
e 10 80
e 11 20
e 11 42
e 11 45
e 11 47
e 11 56
e 11 76
e 12 25
e 12 26
e 12 35
e 12 89
e 12 99
e 13 16
e 13 36
e 13 45
e 13 55
e 13 73
e 13 100
e 14 25
e 14 29
e 14 40
e 14 50
e 14 79
e 14 84
e 15 16
e 15 32
e 15 39
e 15 84
e 15 85
e 16 41
e 16 43
e 16 45
e 17 25
e 17 30
e 17 32
e 17 63
e 17 65
e 18 21
e 18 28
e 18 60
e 18 65
e 18 76
e 18 92
e 19 20
e 19 39
e 19 41
e 19 98
e 20 31
e 20 37
e 20 41
e 21 35
e 21 42
e 21 67
e 21 68
e 21 94
e 22 33
e 22 49
e 22 64
e 22 69
e 22 82
e 22 86
e 23 32
e 23 40
e 23 41
e 23 71
e 23 92
e 24 27
e 24 37
e 24 54
e 24 60
e 24 65
e 24 68
e 25 29
e 25 74
e 25 76
e 26 45
e 26 52
e 26 81
e 26 86
e 27 40
e 27 56
e 27 76
e 27 78
e 27 97
e 28 31
e 28 80
e 28 83
e 28 100
e 29 30
e 29 58
e 29 77
e 29 93
e 30 36
e 30 59
e 30 78
e 30 91
e 31 36
e 31 66
e 31 70
e 31 99
e 32 71
e 32 89
e 32 90
e 33 50
e 33 51
e 33 54
e 33 94
e 34 47
e 34 49
e 34 62
e 34 67
e 34 77
e 34 94
e 35 58
e 35 78
e 35 93
e 36 40
e 36 47
e 36 75
e 37 38
e 37 44
e 37 89
e 37 97
e 38 57
e 38 75
e 38 84
e 38 86
e 38 90
e 39 46
e 39 58
e 39 63
e 39 71
e 40 48
e 40 60
e 41 42
e 41 56
e 42 68
e 42 87
e 42 92
e 43 67
e 43 73
e 43 76
e 43 87
e 43 98
e 44 56
e 44 82
e 44 93
e 45 56
e 45 77
e 46 57
e 46 74
e 46 75
e 46 90
e 46 95
e 47 57
e 47 59
e 47 66
e 48 50
e 48 60
e 48 65
e 48 74
e 49 54
e 49 57
e 49 69
e 50 65
e 50 99
e 51 72
e 51 91
e 51 99
e 51 100
e 52 61
e 52 69
e 52 70
e 53 54
e 53 55
e 53 89
e 53 94
e 53 97
e 53 98
e 54 99
e 55 61
e 55 70
e 56 64
e 57 62
e 57 70
e 58 73
e 58 98
e 59 62
e 59 79
e 59 90
e 60 66
e 61 66
e 61 72
e 61 81
e 62 83
e 63 81
e 63 83
e 63 89
e 63 95
e 64 80
e 64 91
e 65 79
e 66 79
e 66 93
e 67 90
e 67 92
e 67 95
e 68 72
e 68 87
e 68 95
e 69 86
e 69 96
e 70 73
e 70 83
e 71 77
e 71 89
e 72 81
e 72 88
e 73 86
e 74 88
e 74 92
e 74 100
e 75 78
e 75 93
e 75 96
e 77 90
e 79 86
e 79 98
e 80 83
e 80 85
e 80 95
e 82 84
e 82 87
e 84 88
e 85 87
e 85 91
e 85 97
e 88 94
e 88 96
e 88 100
e 91 95
e 91 99
e 94 97
e 96 100
n 2 3
n 3 1
n 6 1
n 9 1
n 11 1
n 12 2
n 14 1
n 15 1
n 16 1
n 18 3
n 19 3
n 22 1
n 24 1
n 29 1
n 32 1
n 34 2
n 35 2
n 36 3
n 37 1
n 38 1
n 42 1
n 43 1
n 44 1
n 45 1
n 53 2
n 56 1
n 63 3
n 64 1
n 68 1
n 70 3
n 71 1
n 74 2
n 78 2
n 83 3
n 85 1
n 86 1
n 87 1
n 88 2
n 91 1
n 94 2
